(set-logic ALL)
(declare-fun var0 () String)
(assert (str.in_re var0 (re.++ (re.+ (re.union (str.to_re "00") (str.to_re "111"))) (re.++ (re.union (re.+ (str.to_re "2")) (re.+ (str.to_re "33"))) (re.++ (re.* (re.union (str.to_re "4") (str.to_re "55"))) (re.++ (re.+ (re.+ (str.to_re "666"))) (re.++ (re.union (re.* (str.to_re "7")) (re.* (str.to_re "8"))) (re.++ (re.union (re.+ (str.to_re "9")) (re.+ (str.to_re "aaa"))) (re.++ (re.union (re.* (str.to_re "b")) (re.* (str.to_re "cc"))) (re.++ (re.* (re.union (str.to_re "ddd") (str.to_re "ee"))) (re.++ (re.union (re.+ (str.to_re "ff")) (re.+ (str.to_re "gg"))) (re.++ (re.* (re.union (str.to_re "hh") (str.to_re "iii"))) (re.++ (re.union (re.* (str.to_re "jjj")) (re.* (str.to_re "k"))) (re.++ (re.+ (re.+ (str.to_re "lll"))) (re.++ (re.union (re.+ (str.to_re "mm")) (re.+ (str.to_re "nnn"))) (re.++ (re.* (re.+ (str.to_re "o"))) (re.++ (re.union (re.+ (str.to_re "pp")) (re.+ (str.to_re "qqq"))) (re.++ (re.union (re.* (str.to_re "r")) (re.* (str.to_re "ss"))) (re.++ (re.+ (re.union (str.to_re "tt") (str.to_re "u"))) (re.++ (re.+ (re.union (str.to_re "vv") (str.to_re "www"))) (re.++ (re.union (re.+ (str.to_re "xxx")) (re.+ (str.to_re "yy"))) (re.++ (re.+ (re.* (str.to_re "zz"))) (re.++ (re.+ (re.* (str.to_re "AAA"))) (re.++ (re.+ (re.+ (str.to_re "BB"))) (re.++ (re.union (re.union (str.to_re "C") (str.to_re "DD")) (re.union (str.to_re "EE") (str.to_re "F"))) (re.++ (re.+ (re.* (str.to_re "G"))) (re.++ (re.+ (re.union (str.to_re "H") (str.to_re "III"))) (re.++ (re.+ (re.* (str.to_re "J"))) (re.++ (re.+ (re.union (str.to_re "KK") (str.to_re "LLL"))) (re.++ (re.+ (re.* (str.to_re "MM"))) (re.++ (re.+ (re.union (str.to_re "NNN") (str.to_re "OOO"))) (re.++ (re.union (re.union (str.to_re "PPP") (str.to_re "QQQ")) (re.union (str.to_re "R") (str.to_re "SS"))) (re.++ (re.union (re.+ (str.to_re "TTT")) (re.+ (str.to_re "UUU"))) (re.++ (re.* (re.* (str.to_re "VV"))) (re.++ (re.+ (re.union (str.to_re "W") (str.to_re "X"))) (re.++ (re.* (re.+ (str.to_re "YYY"))) (re.++ (re.+ (re.union (str.to_re "ZZZ") (str.to_re "!!!"))) (re.++ (re.* (re.* (str.to_re """"""""))) (re.++ (re.* (re.+ (str.to_re "##"))) (re.++ (re.+ (re.* (str.to_re "$$"))) (re.++ (re.union (re.+ (str.to_re "%%%")) (re.+ (str.to_re "&&"))) (re.++ (re.+ (re.* (str.to_re "'"))) (re.++ (re.+ (re.union (str.to_re "(((") (str.to_re "))"))) (re.++ (re.union (re.union (str.to_re "*") (str.to_re "+")) (re.union (str.to_re ",,,") (str.to_re "---"))) (re.union (re.union (str.to_re ".") (str.to_re "/")) (re.union (str.to_re "::") (str.to_re ";;")))))))))))))))))))))))))))))))))))))))))))))))
(check-sat)